135
Controlled demonstration candidate; conformational perturbations, rigid rotation and shuffled atom order; not model output
O 1.37548437 -3.42695199 -0.76511577
H 2.85053685 -3.01520887 7.50027103
C 3.33112978 -1.02618261 8.28318890
O 2.74647666 -5.96361789 0.15367644
Rh 3.33866424 -3.29985514 1.69638450
H -1.59573295 -2.71234092 4.04857594
C 9.31321638 -4.57382587 -3.59806378
N 6.04941653 -6.43481324 -0.88240562
H 7.51840877 -1.37785093 0.54045621
O 0.93124993 -3.26572594 5.17353569
O 0.18819361 -3.17424422 1.88497199
C 5.25803771 -2.92041744 -1.66440183
C 8.30466204 -5.32832802 6.48151376
H -1.98012446 1.01075727 1.01931490
O 6.41112634 -3.70499104 0.17438287
C 4.08269623 -5.35924090 6.73439839
C 1.10912304 -2.07506462 5.37802825
H 3.75376217 -7.60485390 -1.87252994
C 4.21195959 1.50037500 4.32417550
H 7.27536051 -4.11625099 -4.18690175
H 5.26098131 0.60569203 5.97444667
H 3.19011842 2.09281437 2.50807445
C 10.15659871 -5.25431301 -2.71074356
H -0.14235532 -0.31700842 2.81122699
O 1.99966904 -1.96450914 2.51858388
C 9.59720617 -6.01580278 -1.65973673
N 3.81264524 -5.88360419 5.47346910
C 1.98778073 1.00685789 -1.06441668
C 6.87039187 -1.37044462 -0.31562159
C 7.89081195 -3.81893678 4.08133758
H 1.68920084 -2.66784442 -3.58456307
C -1.13188227 1.60320238 0.76443250
H -1.82866653 3.39047511 1.76417322
H 8.45723981 -4.58450587 8.51386133
C 5.96847420 -5.63449852 -2.03362589
H 8.24018616 -3.89844968 5.10074567
O 7.70767918 -7.39827997 0.41458587
C 7.94353844 -4.61904856 -3.48751502
C 1.91562210 -1.40652979 6.40643888
C 6.25906608 -2.93703483 2.48792767
O 3.10686577 1.27625263 -1.47130559
H 4.88069479 -1.00828840 -3.62801052
O 4.56016795 -4.77882244 0.82465272
C 0.11867531 -0.23861711 -0.55213066
C 5.67334403 -1.74425174 -3.84262536
H 2.10591673 -7.97416500 5.80904322
C 5.00408121 -6.10209528 4.76967497
H 4.82971819 -8.80731572 -1.18619813
C 0.09590386 3.72012056 0.87237692
H 9.39714196 -5.35360318 6.37433984
H 1.06633203 -1.01485549 -3.82216671
C 6.37044953 -4.86804133 7.90807010
H 1.06402495 -7.59324385 4.42604008
C -1.02375138 2.95190646 1.19345439
H 3.99315758 -1.44517957 9.08094066
C 5.58225844 -5.30908774 6.86534096
Rh 1.36972605 -4.59494051 0.95065862
H 5.94052716 -4.53263899 8.85773520
H 0.16706320 -2.17119821 -2.81741338
C 0.94818878 0.21459436 5.04611351
C 4.89848628 -6.92301274 -0.13872241
O 5.04286642 -6.55236449 3.60691772
O 4.96023175 -5.20882229 -2.57988605
H 2.25340951 1.95040330 7.02039065
C 4.04572795 0.15385164 2.30913420
H 9.77358532 -4.01786313 -4.39716967
C 3.99992276 -5.78367300 0.29422434
C 5.97533932 -2.69073332 -2.98403972
C 6.16715642 -2.66732756 -0.50137692
H 5.84158041 -1.44882505 4.74735576
O -0.62244627 -1.21927443 -0.48346877
C 0.73907015 -2.26119879 2.50432358
H 6.20168340 -1.61690540 -4.80747157
C 2.71703270 -1.92515297 7.42295493
C -1.55988507 -1.76267256 3.53681284
C -0.11475413 -1.30785380 3.34495504
C 4.15917412 -8.00291501 -0.92188318
C 6.12077827 -5.79001860 5.66143769
C 7.41013380 -5.36653967 -2.42763520
H 3.66188264 0.99943112 8.86493454
C 8.12363275 -4.40716835 1.74909330
H 6.18944631 -2.64040883 4.61768665
C 4.94617223 0.47784579 4.94388957
O 1.52834242 -5.60127708 2.77448818
C 8.22439794 -6.04040887 -1.53193041
O 0.62848134 1.28404104 4.50918868
C 2.44125865 -5.29287630 3.58016271
H 5.30393656 -7.35320607 0.77946564
H 3.95936738 2.41986686 4.85664462
C 1.75749955 -0.03652467 6.25771235
C 7.48838056 -5.76539143 5.45941925
C 6.98292229 -3.63524585 1.49703117
C 1.04898326 1.87054535 -0.28789085
H 7.42314891 -1.16468363 -1.24580491
C 8.59501075 -4.45667487 3.04740035
C 7.77418144 -4.91762811 7.69931937
H 11.21205455 -5.18443638 -2.82870157
N 0.54641902 -1.04934023 4.58288939
C 4.80039950 -0.89076049 2.96244465
H 5.13158454 -1.77865042 1.06352718
H 1.80777858 -5.52075280 5.59714243
H 0.14872183 4.75036096 1.21081671
C 6.75117351 -3.05928901 3.80884151
H 3.32602462 -8.38883491 -0.35337277
H 6.15547114 -0.56171039 -0.21322963
O 3.19431384 -2.22728895 -0.07355931
H 2.75678992 -8.04537734 4.14006460
C 1.16055174 -1.81451136 -3.11263227
C 7.38657213 -6.69693699 -0.51996575
H 4.89087160 -3.93106586 -1.55343499
C 5.24264109 -0.67125782 4.26640765
C 3.17882387 0.35554860 8.14394757
C 1.16680698 3.20595138 0.13226452
H -2.05650246 -1.89298205 2.54394034
C 1.94827065 -1.37563015 -1.89366040
H -2.11783005 -1.04533672 4.08445799
C 5.07187609 -2.09880116 2.11863462
H 10.22999624 -6.54852429 -0.93301856
O 3.23828061 -4.97636822 7.53545628
H 7.89028642 -6.04244010 4.48052418
C 2.47145109 -6.04119952 4.92764127
H 3.70823466 -0.01661968 1.32676449
H 6.77817139 -3.41892530 -3.23138878
C 3.77678013 1.31984656 3.00737290
N 1.33195570 -0.23892357 -1.25115786
H 4.42171716 -2.21690624 -1.57942905
C 2.36113736 0.89560092 7.11873380
H 2.03025817 3.75035894 -0.10578233
C -0.08885424 1.06863240 0.03551964
H 2.93257817 -1.02714262 -2.20697080
H 9.47040164 -5.05135179 3.27445440
C 2.10790393 -7.52120436 4.79992271
C 2.19147268 -2.46355723 -0.85834437
O 3.34903480 -4.41169173 3.44842632
H 8.62295116 -4.90841076 0.91130797
