135
Holdout case 68 reactant: pr17.carbene.ins_ts6a
C -3.35992000 1.02944000 2.48682000
C -2.06202000 0.95553000 1.98496000
C -1.39691000 -0.27634000 1.82517000
C -2.18081000 -1.40141000 2.13671000
C -3.47654000 -1.37076000 2.62083000
C -4.07203000 -0.12555000 2.81803000
H -3.82487000 1.99928000 2.61350000
H -1.54901000 1.85714000 1.67370000
H -3.99408000 -2.29643000 2.83978000
H -5.08488000 -0.06196000 3.20098000
C 0.00035000 -0.41251000 1.37341000
C 1.07409000 0.20812000 2.18272000
C 0.88967000 1.26239000 3.09669000
C 2.37568000 -0.32349000 2.05975000
C 1.95593000 1.76113000 3.84383000
H -0.09446000 1.68944000 3.24305000
C 3.43768000 0.17058000 2.80843000
H 2.53734000 -1.12155000 1.34281000
C 3.23465000 1.21970000 3.70880000
H 1.78375000 2.58382000 4.53157000
H 4.42513000 -0.25735000 2.68819000
H 4.06427000 1.61355000 4.28823000
Rh 0.19307000 -0.02274000 -0.75269000
Rh 0.47067000 0.16210000 -3.22001000
O -1.65647000 -0.90834000 -1.10313000
O -0.72833000 1.82378000 -0.79636000
O 1.20847000 -1.83298000 -0.87303000
O 2.03149000 0.92186000 -0.61487000
O -1.39488000 -0.76008000 -3.35688000
O 1.47583000 -1.68019000 -3.12504000
O 2.28056000 1.12357000 -2.86725000
O -0.47194000 2.00721000 -3.05217000
C -2.03930000 -1.03880000 -2.30467000
C -0.85673000 2.40748000 -1.91811000
C 1.71439000 -2.17274000 -1.99042000
C 2.60981000 1.33503000 -1.66747000
C -3.47932000 -1.52064000 -2.51994000
C -1.54781000 3.77533000 -1.84944000
C 2.75022000 -3.30545000 -1.88461000
C 3.86100000 2.18976000 -1.40960000
H -4.08337000 -0.60691000 -2.54151000
H -0.85952000 4.42941000 -1.30755000
H 2.24414000 -4.16361000 -1.43272000
H 4.62511000 1.51309000 -1.01764000
O -1.66053000 -2.67929000 1.78667000
C -0.54324000 -3.12712000 2.24165000
C 0.00576000 -4.28406000 1.47584000
H -0.60402000 -4.41089000 0.57532000
C 0.06413000 -2.66627000 3.50936000
H -0.48638000 -1.84220000 3.96041000
H 1.10337000 -2.36000000 3.33668000
H 0.26730000 -1.46060000 1.20492000
H 1.02761000 -4.02455000 1.17102000
C 0.03968000 -5.54158000 2.32331000
H -0.93033000 -5.95040000 2.60192000
C 1.16693000 -6.13449000 2.71580000
H 2.14090000 -5.74204000 2.43776000
H 1.14196000 -7.04325000 3.31069000
H 0.09655000 -3.52733000 4.18843000
N -2.72635000 3.65160000 -1.00117000
C -2.95533000 4.42199000 0.14335000
C -3.69300000 2.65040000 -1.16866000
O -2.22626000 5.30840000 0.55464000
C -4.23179000 3.91090000 0.72243000
O -3.68715000 1.82598000 -2.06592000
C -4.66143000 2.82934000 -0.05374000
C -4.93296000 4.31720000 1.84704000
C -5.79481000 2.10099000 0.27076000
C -6.09084000 3.59680000 2.17903000
H -4.59387000 5.15376000 2.44902000
C -6.51001000 2.50550000 1.40764000
H -6.09369000 1.23895000 -0.31545000
H -6.66664000 3.88421000 3.05317000
H -7.40201000 1.95987000 1.69935000
N 3.74849000 -2.90100000 -0.89247000
C 3.90417000 -3.53049000 0.34667000
C 4.54612000 -1.74690000 -0.99385000
O 3.26893000 -4.50354000 0.72134000
C 4.95898000 -2.76688000 1.06811000
O 4.54911000 -0.97960000 -1.93854000
C 5.33802000 -1.68663000 0.26490000
C 5.53340000 -2.98394000 2.31063000
C 6.30197000 -0.77920000 0.67485000
C 6.52071000 -2.07961000 2.72978000
H 5.23189000 -3.82133000 2.93101000
C 6.89628000 -0.99530000 1.92710000
H 6.57447000 0.07242000 0.06195000
H 6.99612000 -2.21708000 3.69569000
H 7.65353000 -0.30495000 2.28422000
N -3.96241000 -2.26626000 -1.36699000
C -5.13661000 -1.93634000 -0.67801000
C -3.34010000 -3.40226000 -0.83458000
O -5.86843000 -0.99882000 -0.94142000
C -5.28219000 -2.96020000 0.39283000
O -2.31231000 -3.90600000 -1.25275000
C -4.19796000 -3.83651000 0.30564000
C -6.25661000 -3.10067000 1.36830000
C -4.04596000 -4.88827000 1.19564000
C -6.10929000 -4.15781000 2.27733000
H -7.09230000 -2.41159000 1.42900000
C -5.02044000 -5.03631000 2.19302000
H -3.20530000 -5.57009000 1.12129000
H -6.84839000 -4.29968000 3.05936000
H -4.93352000 -5.84629000 2.91031000
C -1.88649000 4.37508000 -3.21121000
H -2.34486000 5.35923000 -3.07472000
H -0.97580000 4.48813000 -3.80365000
H -2.57904000 3.73032000 -3.75730000
C 3.38597000 -3.70374000 -3.21202000
H 4.09463000 -4.52150000 -3.05085000
H 2.61027000 -4.04108000 -3.90389000
H 3.90732000 -2.85721000 -3.66149000
C -3.67263000 -2.30568000 -3.81911000
H -3.35342000 -1.70044000 -4.66915000
H -3.08437000 -3.22696000 -3.80373000
H -4.72956000 -2.56085000 -3.94031000
N 3.55392000 3.10762000 -0.31898000
C 4.27912000 3.17506000 0.87829000
C 2.36732000 3.85051000 -0.25825000
O 5.32302000 2.58697000 1.09833000
C 3.50082000 4.08468000 1.76857000
O 1.57039000 3.96303000 -1.17346000
C 2.32719000 4.44807000 1.10159000
C 3.76394000 4.52528000 3.05529000
C 1.35406000 5.23055000 1.70491000
C 2.79668000 5.33128000 3.67189000
H 4.67636000 4.24282000 3.56938000
C 1.60659000 5.66696000 3.01347000
H 0.42999000 5.47726000 1.19059000
H 2.96588000 5.69179000 4.68187000
H 0.86914000 6.27756000 3.52519000
C 4.38571000 2.91073000 -2.64717000
H 5.28434000 3.47875000 -2.38834000
H 4.63689000 2.18231000 -3.42144000
H 3.63156000 3.59470000 -3.04343000
