65
2P P h3 | SCF Energy: -1826.44367565 | Num. Imaginary Frequencies: 0
C      2.733266    -0.978358    -0.461455
C      2.953304     0.213761    -0.685915
C      2.789069    -2.436870    -0.286519
C      3.000147    -2.936469     1.103403
O      1.706825    -2.996760     0.477196
H      3.060517    -2.167611     1.876139
C      3.561317     1.535136    -0.997823
C      3.200909    -3.188024    -1.537957
H      2.490644    -2.985668    -2.346411
H      4.197868    -2.876782    -1.867046
H      3.208812    -4.263289    -1.353009
C      3.683382    -4.233566     1.448822
H      4.745013    -4.057225     1.655044
H      3.231820    -4.653385     2.354533
H      3.595739    -4.975540     0.652746
O      3.980266     2.205812     0.228369
C      3.082256     2.497043     1.200488
O      1.909383     2.181833     1.154034
C      3.739608     3.252523     2.326051
H      4.594663     2.688462     2.711628
H      4.121865     4.210490     1.957650
H      3.014475     3.425143     3.121653
C      4.887629     1.264424    -1.732446
H      5.381160     2.219689    -1.932322
H      5.550803     0.648830    -1.119474
H      4.698345     0.756407    -2.681812
C      2.647351     2.446646    -1.827933
H      1.715955     2.666708    -1.304309
H      3.174509     3.383693    -2.031027
H      2.413175     1.966894    -2.783187
Au     0.585890    -0.065937    -0.280284
P     -1.730830     0.055690     0.001987
C     -2.313546     1.785145     0.077068
C     -2.224471    -0.771894     1.553572
C     -2.620509    -0.765127    -1.367761
C     -3.554029     2.152818    -0.467812
C     -3.995017     3.473073    -0.365201
C     -3.204543     4.428484     0.276525
C     -1.967939     4.065557     0.816407
C     -1.516218     2.749678     0.716723
H     -4.171227     1.416875    -0.973710
H     -4.954286     3.753583    -0.790103
H     -3.549484     5.455657     0.351812
H     -1.350042     4.808891     1.311658
H     -0.547566     2.479810     1.128650
C     -3.768260    -1.536578    -1.131633
C     -4.444448    -2.124495    -2.202678
C     -3.982928    -1.946331    -3.507794
C     -2.839005    -1.179544    -3.747163
C     -2.156238    -0.594369    -2.682453
H     -4.130250    -1.684111    -0.119114
H     -5.329857    -2.724334    -2.013965
H     -4.509887    -2.407942    -4.337718
H     -2.475354    -1.043620    -4.761432
H     -1.261264    -0.006731    -2.871619
C     -3.262250    -0.264536     2.350420
C     -3.640371    -0.940237     3.511994
C     -2.989493    -2.118728     3.881698
C     -1.953972    -2.624406     3.091228
C     -1.565429    -1.954062     1.931996
H     -3.768999     0.654111     2.071829
H     -4.441484    -0.542392     4.127921
H     -3.285305    -2.640173     4.787400
H     -1.443384    -3.538322     3.380306
H     -0.749039    -2.345685     1.329998
