65
9P P h3 | SCF Energy: -1826.51511750 | Num. Imaginary Frequencies: 0
C     -5.696257    -0.955152     0.152125
C     -4.478066    -1.532337    -0.008613
H     -5.726045     0.064961     0.528820
C     -3.284206    -0.770310     0.378017
O     -2.209874    -1.401668     0.522377
C     -3.338413     0.706665     0.617129
C     -2.986618     1.319422     1.763682
C     -4.231132    -2.945394    -0.477805
H     -3.483468    -2.960232    -1.277874
H     -3.834538    -3.561962     0.336382
H     -5.141754    -3.416466    -0.850105
C     -7.037065    -1.556535    -0.105461
H     -7.605495    -0.919786    -0.796675
H     -6.999306    -2.567665    -0.513177
H     -7.617351    -1.581240     0.827298
C     -3.098005     2.812213     1.928495
H     -2.113562     3.233693     2.170825
H     -3.481125     3.308993     1.036913
H     -3.757072     3.051820     2.772426
C     -2.522213     0.570312     2.986853
H     -2.496763    -0.512780     2.860247
H     -1.516542     0.903667     3.273123
H     -3.180352     0.805603     3.833089
O     -3.916306     1.460452    -0.419031
C     -3.287364     1.422641    -1.637923
O     -2.275630     0.786544    -1.829443
C     -4.030345     2.251316    -2.649139
H     -3.488307     2.243774    -3.594880
H     -5.035830     1.842883    -2.796916
H     -4.146610     3.278480    -2.288862
Au    -0.188850    -0.642967     0.300730
P      1.995024    -0.036287    -0.050792
C      2.747289    -1.073042    -1.354263
C      2.115070     1.703049    -0.597236
C      3.021786    -0.221428     1.448882
C      3.605893    -0.524184    -2.318678
C      4.190674    -1.350482    -3.280422
C      3.924627    -2.720680    -3.284995
C      3.069418    -3.271050    -2.326251
C      2.478670    -2.452127    -1.365760
H      3.813974     0.540979    -2.326451
H      4.851372    -0.920207    -4.027256
H      4.378816    -3.359188    -4.037039
H      2.857012    -4.336012    -2.330504
H      1.807390    -2.883636    -0.627453
C      3.175329     2.524040    -0.184016
C      3.262786     3.836604    -0.651626
C      2.299185     4.333680    -1.530869
C      1.241182     3.518607    -1.942630
C      1.141683     2.208349    -1.476167
H      3.927244     2.146360     0.501684
H      4.083542     4.469023    -0.326290
H      2.370113     5.355469    -1.892349
H      0.489499     3.904549    -2.625073
H      0.308487     1.584902    -1.790902
C      4.363352    -0.624208     1.359184
C      5.139482    -0.722946     2.515334
C      4.585278    -0.422706     3.761058
C      3.249556    -0.023133     3.855054
C      2.468057     0.074324     2.704954
H      4.799246    -0.866802     0.395193
H      6.175628    -1.039467     2.440971
H      5.191031    -0.505542     4.658677
H      2.814926     0.204227     4.823969
H      1.426334     0.374651     2.781668
